; Automatically generated by map2smt

(set-logic HORN)

(declare-datatypes ((listOfInt 0) )
(((conslistOfInt (headlistOfInt Int) (taillistOfInt listOfInt)) (nillistOfInt))))



(declare-fun leq (Int Int Bool) Bool)
(declare-fun mem (Int listOfInt Bool) Bool)
(declare-fun ins1 (Int listOfInt listOfInt) Bool)
(declare-fun ff () Bool)

(assert
  (forall ( (A Int) (B Bool) )
    (=>
      (= B false)
      (mem A nillistOfInt B)
    )
  )
)
(assert
  (forall ( (A Int) (B listOfInt) (C Bool) )
    (=>
      (= C true)
      (mem A (conslistOfInt A B) C)
    )
  )
)
(assert
  (forall ( (A Int) (B Int) (C listOfInt) (D Bool) )
    (=>
      (and
        (= D true)
        (= D true)
        (mem A C D)
      )
      (mem A (conslistOfInt B C) D)
    )
  )
)
(assert
  (forall ( (A Int) (B Int) (C listOfInt) (D Bool) )
    (=>
      (and
        (= D false)
        (= D false)
        (= D false)
        (>= (- B A) 1)
        (mem A C D)
      )
      (mem A (conslistOfInt B C) D)
    )
  )
)
(assert
  (forall ( (A Int) (B Int) (C listOfInt) (D Bool) )
    (=>
      (and
        (= D false)
        (= D false)
        (= D false)
        (<= (- B A) (- 1))
        (mem A C D)
      )
      (mem A (conslistOfInt B C) D)
    )
  )
)
(assert
  (forall ( (A Int) )
    (ins1 A nillistOfInt (conslistOfInt A nillistOfInt))
  )
)
(assert
  (forall ( (A Int) (B listOfInt) )
    (ins1 A (conslistOfInt A B) (conslistOfInt A B))
  )
)
(assert
  (forall ( (A Int) (B Int) (C listOfInt) (D listOfInt) )
    (=>
      (and
        (>= (- B A) 1)
        (ins1 A C D)
      )
      (ins1 A (conslistOfInt B C) (conslistOfInt B D))
    )
  )
)
(assert
  (forall ( (A Int) (B Int) (C listOfInt) (D listOfInt) )
    (=>
      (and
        (<= (- B A) (- 1))
        (ins1 A C D)
      )
      (ins1 A (conslistOfInt B C) (conslistOfInt B D))
    )
  )
)
(assert
  (forall ( (A Bool) (B Int) (C listOfInt) (D listOfInt) )
    (=>
      (and
        (= A false)
        (ins1 B C D)
        (mem B D A)
      )
      ff
    )
  )
)

(assert (not ff))
(check-sat)
